p cnf 60 338
1 6 31 32 0
-32 -1 0
-32 -31 0
-1 -31 0
-1 -6 0
-31 -6 0
-6 -32 0
-2 -7 -32 -33 0
33 2 0
33 32 0
2 32 0
2 7 0
32 7 0
7 33 0
34 3 33 0
34 3 8 0
34 33 8 0
3 33 8 0
-34 -3 -33 0
-34 -3 -8 0
-34 -33 -8 0
-3 -33 -8 0
35 4 34 0
35 4 9 0
35 34 9 0
4 34 9 0
-35 -4 -34 0
-35 -4 -9 0
-35 -34 -9 0
-4 -34 -9 0
-5 0
-10 0
-35 0
-36 0
-6 0
-11 0
-37 0
-38 0
-7 -12 -38 -39 0
39 7 0
39 38 0
7 38 0
7 12 0
38 12 0
12 39 0
8 13 39 40 0
-40 -8 0
-40 -39 0
-8 -39 0
-8 -13 0
-39 -13 0
-13 -40 0
-9 -14 -40 -41 0
41 9 0
41 40 0
9 40 0
9 14 0
40 14 0
14 41 0
10 15 41 42 0
-42 -10 0
-42 -41 0
-10 -41 0
-10 -15 0
-41 -15 0
-15 -42 0
44 11 43 0
44 11 16 0
44 43 16 0
11 43 16 0
-44 -11 -43 0
-44 -11 -16 0
-44 -43 -16 0
-11 -43 -16 0
45 12 44 0
45 12 17 0
45 44 17 0
12 44 17 0
-45 -12 -44 0
-45 -12 -17 0
-45 -44 -17 0
-12 -44 -17 0
13 18 45 46 0
-46 -13 0
-46 -45 0
-13 -45 0
-13 -18 0
-45 -18 0
-18 -46 0
-14 -19 -46 -47 0
47 14 0
47 46 0
14 46 0
14 19 0
46 19 0
19 47 0
15 20 47 48 0
-48 -15 0
-48 -47 0
-15 -47 0
-15 -20 0
-47 -20 0
-20 -48 0
50 16 49 0
50 16 21 0
50 49 21 0
16 49 21 0
-50 -16 -49 0
-50 -16 -21 0
-50 -49 -21 0
-16 -49 -21 0
17 22 50 51 0
-51 -17 0
-51 -50 0
-17 -50 0
-17 -22 0
-50 -22 0
-22 -51 0
18 23 51 52 0
-52 -18 0
-52 -51 0
-18 -51 0
-18 -23 0
-51 -23 0
-23 -52 0
53 19 52 0
53 19 24 0
53 52 24 0
19 52 24 0
-53 -19 -52 0
-53 -19 -24 0
-53 -52 -24 0
-19 -52 -24 0
54 20 53 0
54 20 25 0
54 53 25 0
20 53 25 0
-54 -20 -53 0
-54 -20 -25 0
-54 -53 -25 0
-20 -53 -25 0
-21 -26 -55 -56 0
56 21 0
56 55 0
21 55 0
21 26 0
55 26 0
26 56 0
57 22 56 0
57 22 27 0
57 56 27 0
22 56 27 0
-57 -22 -56 0
-57 -22 -27 0
-57 -56 -27 0
-22 -56 -27 0
23 28 57 58 0
-58 -23 0
-58 -57 0
-23 -57 0
-23 -28 0
-57 -28 0
-28 -58 0
59 24 58 0
59 24 29 0
59 58 29 0
24 58 29 0
-59 -24 -58 0
-59 -24 -29 0
-59 -58 -29 0
-24 -58 -29 0
-25 -30 -59 -60 0
60 25 0
60 59 0
25 59 0
25 30 0
59 30 0
30 60 0
-2 -1 -32 0
-3 -2 -33 0
-4 -3 -34 0
-5 -4 -35 0
 -6 -31 -37 0
-7 32 6 38 0
-32 7 6 38 0
-6 7 32 38 0
-38 7 32 6 0
-7 -32 -6 -38 0
 -7 -32 -6 0
 -7 -32 -38 0
-7 -6 -38 0
-32 -6 -38 0
-8 33 7 39 0
-33 8 7 39 0
-7 8 33 39 0
-39 8 33 7 0
-8 -33 -7 -39 0
 -8 -33 -7 0
 -8 -33 -39 0
-8 -7 -39 0
-33 -7 -39 0
-9 34 8 40 0
-34 9 8 40 0
-8 9 34 40 0
-40 9 34 8 0
-9 -34 -8 -40 0
 -9 -34 -8 0
 -9 -34 -40 0
-9 -8 -40 0
-34 -8 -40 0
-10 35 9 41 0
-35 10 9 41 0
-9 10 35 41 0
-41 10 35 9 0
-10 -35 -9 -41 0
 -10 -35 -9 0
 -10 -35 -41 0
-10 -9 -41 0
-35 -9 -41 0
-36 -10 -42 0
 -11 -37 -43 0
-12 38 11 44 0
-38 12 11 44 0
-11 12 38 44 0
-44 12 38 11 0
-12 -38 -11 -44 0
 -12 -38 -11 0
 -12 -38 -44 0
-12 -11 -44 0
-38 -11 -44 0
-13 39 12 45 0
-39 13 12 45 0
-12 13 39 45 0
-45 13 39 12 0
-13 -39 -12 -45 0
 -13 -39 -12 0
 -13 -39 -45 0
-13 -12 -45 0
-39 -12 -45 0
-14 40 13 46 0
-40 14 13 46 0
-13 14 40 46 0
-46 14 40 13 0
-14 -40 -13 -46 0
 -14 -40 -13 0
 -14 -40 -46 0
-14 -13 -46 0
-40 -13 -46 0
-15 41 14 47 0
-41 15 14 47 0
-14 15 41 47 0
-47 15 41 14 0
-15 -41 -14 -47 0
 -15 -41 -14 0
 -15 -41 -47 0
-15 -14 -47 0
-41 -14 -47 0
-42 -15 -48 0
 -16 -43 -49 0
-17 44 16 50 0
-44 17 16 50 0
-16 17 44 50 0
-50 17 44 16 0
-17 -44 -16 -50 0
 -17 -44 -16 0
 -17 -44 -50 0
-17 -16 -50 0
-44 -16 -50 0
-18 45 17 51 0
-45 18 17 51 0
-17 18 45 51 0
-51 18 45 17 0
-18 -45 -17 -51 0
 -18 -45 -17 0
 -18 -45 -51 0
-18 -17 -51 0
-45 -17 -51 0
-19 46 18 52 0
-46 19 18 52 0
-18 19 46 52 0
-52 19 46 18 0
-19 -46 -18 -52 0
 -19 -46 -18 0
 -19 -46 -52 0
-19 -18 -52 0
-46 -18 -52 0
-20 47 19 53 0
-47 20 19 53 0
-19 20 47 53 0
-53 20 47 19 0
-20 -47 -19 -53 0
 -20 -47 -19 0
 -20 -47 -53 0
-20 -19 -53 0
-47 -19 -53 0
-48 -20 -54 0
 -21 -49 -55 0
-22 50 21 56 0
-50 22 21 56 0
-21 22 50 56 0
-56 22 50 21 0
-22 -50 -21 -56 0
 -22 -50 -21 0
 -22 -50 -56 0
-22 -21 -56 0
-50 -21 -56 0
-23 51 22 57 0
-51 23 22 57 0
-22 23 51 57 0
-57 23 51 22 0
-23 -51 -22 -57 0
 -23 -51 -22 0
 -23 -51 -57 0
-23 -22 -57 0
-51 -22 -57 0
-24 52 23 58 0
-52 24 23 58 0
-23 24 52 58 0
-58 24 52 23 0
-24 -52 -23 -58 0
 -24 -52 -23 0
 -24 -52 -58 0
-24 -23 -58 0
-52 -23 -58 0
-25 53 24 59 0
-53 25 24 59 0
-24 25 53 59 0
-59 25 53 24 0
-25 -53 -24 -59 0
 -25 -53 -24 0
 -25 -53 -59 0
-25 -24 -59 0
-53 -24 -59 0
-54 -25 -60 0
 -27 -56 -26 0
 -28 -57 -27 0
 -29 -58 -28 0
 -30 -59 -29 0
